asp/input/in_30_15_10_2.lp
#const n = 30.
#const k = 15.
#const h = 10.
tile(1,13,6).
tile(2,5,3).
tile(3,14,3).
tile(4,4,6).
tile(5,5,4).
tile(6,4,3).
tile(7,2,5).
tile(8,4,6).
tile(9,1,1).
tile(10,2,9).
tile(11,6,5).
tile(12,7,6).
tile(13,4,11).
tile(14,13,6).
tile(15,13,14).
tile(16,6,10).
tile(17,5,4).
tile(18,13,2).
tile(19,1,11).
tile(20,11,4).
tile(21,6,15).
tile(22,12,2).
tile(23,12,10).
tile(24,8,11).
tile(25,11,2).
tile(26,9,1).
tile(27,8,1).
tile(28,10,2).
tile(29,10,13).
tile(30,2,2).
