instances/in_30_15_10_2.dzn
n = 30;
k = 15;
h = 10;
tiles = array2d(1..n, 1..2,
[ 13,6
, 5,3
, 14,3
, 4,6
, 5,4
, 4,3
, 2,5
, 4,6
, 1,1
, 2,9
, 6,5
, 7,6
, 4,11
, 13,6
, 13,14
, 6,10
, 5,4
, 13,2
, 1,11
, 11,4
, 6,15
, 12,2
, 12,10
, 8,11
, 11,2
, 9,1
, 8,1
, 10,2
, 10,13
, 2,2
]);